sat
(:elim-unconstrained  2
 :max-memory          18.43
 :memory              18.33
 :nlsat-arith-var     2
 :nlsat-atoms         8
 :nlsat-bool-var      1
 :nlsat-clauses       6
 :nlsat-conflicts     1
 :nlsat-propagations  11
 :nlsat-stages        4
 :num-allocs          50379
 :rlimit-count        755
 :solve-eqs-elim-vars 1
 :solve-eqs-steps     1
 :time                0.00
 :total-time          0.01)
